p cnf 7230 16
-1568 -2642 -2840 0
-1566 -2102 -2838 0
-373 -2656 -2836 0
-371 -2658 -2834 0
1568 -2841 0
1566 -2839 0
373 -2837 0
371 -2835 0
2840 2841 0
2838 2839 0
2836 2837 0
2834 2835 0
2642 -2841 0
2102 -2839 0
2656 -2837 0
2658 -2835 0
